decision_x1=[0,2];
decision_x2=[0,2];
decision_x3=[0,2];
decision_x4=[0,2];
decision_x5=[0,2];
decision_x6=[0,2];
decision_x7=[0,2];
decision_x8=[0,2];
decision_x9=[0,2];
decision_x10=[0,2];
decision_x11=[0,2];
decision_x12=[0,2];
random_y1=[0,2];
random_y2=[0,2];
random_y3=[0,2];
random_y4=[0,2];
random_y5=[0,2];
random_y6=[0,2];
random_y7=[0,2];
random_y8=[0,2];
random_y9=[0,2];
random_y10=[0,2];
random_y11=[0,2];
random_y12=[0,2];
constraint_x3_x1=[
0,0,1.6|
0,1,3.3|
0,2,4.3|
1,0,7.3|
1,1,4.8|
1,2,1.7|
2,0,4.7|
2,1,0.15|
2,2,8.6|
];
constraint_x3_x2=[
0,0,5|
0,1,4.6|
0,2,6.4|
1,0,4.9|
1,1,0.74|
1,2,7|
2,0,6.2|
2,1,9|
2,2,5.4|
];
constraint_x5_x1=[
0,0,8.9|
0,1,2.8|
0,2,7.7|
1,0,0.76|
1,1,7.2|
1,2,4.1|
2,0,3.3|
2,1,4.8|
2,2,5.5|
];
constraint_x5_x2=[
0,0,2.7|
0,1,8.2|
0,2,3.5|
1,0,5.1|
1,1,1.6|
1,2,6.3|
2,0,7.6|
2,1,7.4|
2,2,6.9|
];
constraint_x5_x4=[
0,0,4.8|
0,1,5.5|
0,2,2.6|
1,0,4.8|
1,1,7.9|
1,2,2|
2,0,0.93|
2,1,1.7|
2,2,2|
];
constraint_x6_x2=[
0,0,2.7|
0,1,2.4|
0,2,6.9|
1,0,4.5|
1,1,9|
1,2,9.3|
2,0,8.1|
2,1,3.3|
2,2,3.9|
];
constraint_x6_x3=[
0,0,2.6|
0,1,7.9|
0,2,2.5|
1,0,4.1|
1,1,7.3|
1,2,2.1|
2,0,8.8|
2,1,9.4|
2,2,8|
];
constraint_x6_x5=[
0,0,3.6|
0,1,3.5|
0,2,1.9|
1,0,7.5|
1,1,5.5|
1,2,5.7|
2,0,8.7|
2,1,4.6|
2,2,3.6|
];
constraint_x7_x1=[
0,0,8.4|
0,1,0.28|
0,2,6.8|
1,0,6.7|
1,1,0.46|
1,2,8.8|
2,0,6.5|
2,1,0.2|
2,2,3.6|
];
constraint_x7_x3=[
0,0,4|
0,1,8.4|
0,2,0.6|
1,0,0.012|
1,1,1.4|
1,2,0.55|
2,0,4.9|
2,1,2.9|
2,2,8.8|
];
constraint_x7_x4=[
0,0,6.7|
0,1,7.9|
0,2,6.3|
1,0,5.3|
1,1,2.5|
1,2,5.2|
2,0,7.3|
2,1,8|
2,2,4.9|
];
constraint_x7_x5=[
0,0,8.3|
0,1,8.5|
0,2,3.9|
1,0,5.2|
1,1,6|
1,2,2.6|
2,0,6.9|
2,1,6.4|
2,2,0.23|
];
constraint_x7_x6=[
0,0,8.2|
0,1,3.5|
0,2,4.2|
1,0,5.5|
1,1,1|
1,2,4.8|
2,0,2.3|
2,1,9.2|
2,2,3.3|
];
constraint_x8_x2=[
0,0,5.3|
0,1,3.9|
0,2,8.2|
1,0,1.6|
1,1,3.1|
1,2,2.6|
2,0,7.2|
2,1,1.2|
2,2,9.4|
];
constraint_x8_x6=[
0,0,9|
0,1,2.9|
0,2,4.2|
1,0,4.2|
1,1,9|
1,2,7.8|
2,0,4.4|
2,1,9.2|
2,2,9.8|
];
constraint_x9_x3=[
0,0,5.3|
0,1,0.31|
0,2,2.2|
1,0,4|
1,1,2.5|
1,2,9.5|
2,0,1.7|
2,1,5.2|
2,2,5.1|
];
constraint_x9_x4=[
0,0,7.7|
0,1,1.2|
0,2,5.3|
1,0,2.1|
1,1,4.7|
1,2,0.96|
2,0,9.8|
2,1,2.1|
2,2,3|
];
constraint_x9_x7=[
0,0,1.8|
0,1,0.013|
0,2,9.3|
1,0,9.7|
1,1,4.4|
1,2,3.3|
2,0,7.4|
2,1,7.7|
2,2,4.3|
];
constraint_x10_x2=[
0,0,0.43|
0,1,5.9|
0,2,0.28|
1,0,2.1|
1,1,7.2|
1,2,7|
2,0,6.6|
2,1,4.4|
2,2,3.2|
];
constraint_x10_x3=[
0,0,8.5|
0,1,8.6|
0,2,7.3|
1,0,5.6|
1,1,0.61|
1,2,8.4|
2,0,3.3|
2,1,2.2|
2,2,4.7|
];
constraint_x10_x8=[
0,0,4.4|
0,1,1.3|
0,2,8.7|
1,0,2.5|
1,1,7.2|
1,2,5.3|
2,0,6.9|
2,1,9.1|
2,2,6.7|
];
constraint_x10_x9=[
0,0,8.1|
0,1,9.4|
0,2,9.1|
1,0,5.2|
1,1,8|
1,2,8.6|
2,0,0.13|
2,1,5.6|
2,2,5.1|
];
constraint_x11_x1=[
0,0,4.4|
0,1,2.9|
0,2,7.7|
1,0,8.2|
1,1,0.27|
1,2,8.1|
2,0,3.4|
2,1,4.2|
2,2,0.86|
];
constraint_x11_x5=[
0,0,8.9|
0,1,4.4|
0,2,7.5|
1,0,3.5|
1,1,7.1|
1,2,3.5|
2,0,4.1|
2,1,5.1|
2,2,3.9|
];
constraint_x11_x6=[
0,0,0.87|
0,1,4.6|
0,2,0.32|
1,0,2.3|
1,1,6.2|
1,2,9.1|
2,0,9.7|
2,1,2.3|
2,2,4.8|
];
constraint_x11_x8=[
0,0,3.4|
0,1,8.1|
0,2,6.6|
1,0,0.074|
1,1,5.6|
1,2,6.7|
2,0,8.8|
2,1,9.1|
2,2,9.7|
];
constraint_x11_x9=[
0,0,3.4|
0,1,5.5|
0,2,5.1|
1,0,0.11|
1,1,9.3|
1,2,5.6|
2,0,5.6|
2,1,8.2|
2,2,8.2|
];
constraint_x12_x1=[
0,0,7.3|
0,1,0.8|
0,2,0.13|
1,0,9|
1,1,6.4|
1,2,9.2|
2,0,9.9|
2,1,7.9|
2,2,2.2|
];
constraint_x12_x3=[
0,0,1.4|
0,1,1.7|
0,2,4.7|
1,0,0.45|
1,1,7|
1,2,3|
2,0,2|
2,1,1.9|
2,2,7.3|
];
constraint_x12_x4=[
0,0,8.1|
0,1,0.7|
0,2,2.8|
1,0,4.8|
1,1,4.6|
1,2,0.2|
2,0,2.4|
2,1,9.6|
2,2,7.7|
];
constraint_x12_x6=[
0,0,9|
0,1,8.7|
0,2,7.7|
1,0,5.8|
1,1,8|
1,2,0.54|
2,0,1.1|
2,1,7.5|
2,2,4.7|
];
constraint_x12_x7=[
0,0,6.4|
0,1,7.8|
0,2,3.7|
1,0,6.6|
1,1,3.5|
1,2,4.3|
2,0,0.9|
2,1,2.7|
2,2,2.9|
];
constraint_x12_x8=[
0,0,6.2|
0,1,2.4|
0,2,0.24|
1,0,1.9|
1,1,8|
1,2,7.1|
2,0,0.78|
2,1,4.2|
2,2,6.5|
];
constraint_x1_y1=[
0,0,3.3|
0,1,2.6|
0,2,9.1|
1,0,7.3|
1,1,4|
1,2,7.3|
2,0,0.98|
2,1,2.2|
2,2,4.9|
];
constraint_x2_y2=[
0,0,9.2|
0,1,6.5|
0,2,6.8|
1,0,9.9|
1,1,2.7|
1,2,5.2|
2,0,1.8|
2,1,5|
2,2,2.5|
];
constraint_x3_y3=[
0,0,3.5|
0,1,3.9|
0,2,9|
1,0,0.87|
1,1,3.1|
1,2,7|
2,0,5.1|
2,1,0.099|
2,2,3.7|
];
constraint_x4_y4=[
0,0,6.8|
0,1,8.9|
0,2,6.2|
1,0,3.9|
1,1,3.7|
1,2,8.7|
2,0,8.3|
2,1,0.0047|
2,2,8.9|
];
constraint_x5_y5=[
0,0,2.3|
0,1,0.69|
0,2,3.9|
1,0,9.1|
1,1,10|
1,2,4.9|
2,0,1.6|
2,1,7.2|
2,2,5.5|
];
constraint_x6_y6=[
0,0,6.6|
0,1,4.6|
0,2,4|
1,0,0.16|
1,1,2.5|
1,2,0.6|
2,0,10|
2,1,1.4|
2,2,4.9|
];
constraint_x7_y7=[
0,0,8.9|
0,1,7.8|
0,2,3.5|
1,0,1.9|
1,1,8.4|
1,2,3.6|
2,0,4.4|
2,1,7.9|
2,2,2.5|
];
constraint_x8_y8=[
0,0,6.3|
0,1,1.8|
0,2,6.1|
1,0,3.1|
1,1,4|
1,2,6.8|
2,0,1.1|
2,1,6.2|
2,2,0.81|
];
constraint_x9_y9=[
0,0,6.8|
0,1,1.5|
0,2,1.3|
1,0,2.9|
1,1,1|
1,2,7.3|
2,0,4.5|
2,1,3|
2,2,8|
];
constraint_x10_y10=[
0,0,5.1|
0,1,4.7|
0,2,5.2|
1,0,8.5|
1,1,3|
1,2,8|
2,0,3.6|
2,1,0.8|
2,2,6.5|
];
constraint_x11_y11=[
0,0,9.7|
0,1,8.4|
0,2,6.2|
1,0,7.3|
1,1,0.72|
1,2,7.8|
2,0,2.2|
2,1,7.3|
2,2,9|
];
constraint_x12_y12=[
0,0,6.8|
0,1,6.1|
0,2,6.7|
1,0,0.69|
1,1,7.5|
1,2,2.8|
2,0,0.53|
2,1,7.5|
2,2,8|
];
initial_distribution_y1=[0.44,0.36,0.21];
initial_distribution_y2=[0.4,0.1,0.49];
initial_distribution_y3=[0.35,0.19,0.46];
initial_distribution_y4=[0.53,0.42,0.049];
initial_distribution_y5=[0.34,0.35,0.31];
initial_distribution_y6=[0.48,0.15,0.37];
initial_distribution_y7=[0.37,0.15,0.48];
initial_distribution_y8=[0.49,0.038,0.47];
initial_distribution_y9=[0.18,0.23,0.59];
initial_distribution_y10=[0.13,0.47,0.4];
initial_distribution_y11=[0.44,0.19,0.36];
initial_distribution_y12=[0.11,0.36,0.53];
transition_y1=[
0.33,0.3,0.37|
0.52,0.33,0.14|
0.03,0.86,0.11|
];
transition_y2=[
0.29,0.45,0.26|
0.38,0.43,0.19|
0.36,0.27,0.37|
];
transition_y3=[
0.24,0.35,0.41|
0.24,0.64,0.13|
0.26,0.43,0.31|
];
transition_y4=[
0.35,0.26,0.39|
0.55,0.4,0.05|
0.41,0.44,0.16|
];
transition_y5=[
0.4,0.27,0.32|
0.18,0.24,0.58|
0.2,0.43,0.37|
];
transition_y6=[
0.47,0.43,0.1|
0.25,0.32,0.43|
0.39,0.037,0.57|
];
transition_y7=[
0.5,0.13,0.37|
0.5,0.41,0.097|
0.21,0.36,0.43|
];
transition_y8=[
0.33,0.29,0.38|
0.064,0.56,0.37|
0.31,0.37,0.32|
];
transition_y9=[
0.33,0.23,0.44|
0.37,0.39,0.25|
0.69,0.22,0.096|
];
transition_y10=[
0.21,0.34,0.45|
0.065,0.91,0.024|
0.44,0.065,0.49|
];
transition_y11=[
0.4,0.48,0.12|
0.12,0.54,0.34|
0.36,0.38,0.26|
];
transition_y12=[
0.49,0.31,0.2|
0.42,0.16,0.42|
0.41,0.28,0.31|
];
